(declare-fun temp132514_1 () (_ BitVec 64))
(declare-fun temp132514_2 () (_ BitVec 64))
(declare-fun var77740 () (_ BitVec 64))
(declare-fun k!0 () Bool)
(declare-fun ARGNAME_input_1_NAMEEND_DIM () (_ BitVec 64))
(declare-fun ARGNAME_data_format_NAMEEND_STRFMT () (_ BitVec 64))
(declare-fun temp132514_3 () (_ BitVec 64))
(declare-fun ARGNAME_input_2_NAMEEND_DIM () (_ BitVec 64))
(declare-fun var77770 () (_ BitVec 64))
(declare-fun temp132514_4 () (_ BitVec 64))
(declare-fun temp132514_5 () (_ BitVec 64))
(declare-fun ARGNAME_input_1_NAMEEND_DIMSIZE
             ()
             (Array (_ BitVec 64) (_ BitVec 64)))
(declare-fun temp132514_6 () (_ BitVec 64))
(declare-fun temp132514_7 () (_ BitVec 64))
(declare-fun temp132514_8 () (_ BitVec 64))
(declare-fun temp132514_9 () (_ BitVec 64))
(declare-fun temp132514_10 () (_ BitVec 64))
(declare-fun temp132514_11 () (_ BitVec 64))
(declare-fun temp132514_12 () (_ BitVec 64))
(declare-fun temp132514_13 () (_ BitVec 64))
(declare-fun temp132514_14 () (_ BitVec 64))
(declare-fun temp132514_15 () (_ BitVec 64))
(declare-fun temp132514_16 () (_ BitVec 64))
(declare-fun temp132514_17 () (_ BitVec 64))
(declare-fun temp132514_18 () (_ BitVec 64))
(declare-fun var77799 () (_ BitVec 64))
(declare-fun temp132514_19 () (_ BitVec 64))
(declare-fun ARGNAME_input_2_NAMEEND_DIMSIZE
             ()
             (Array (_ BitVec 64) (_ BitVec 64)))
(declare-fun temp132514_20 () (_ BitVec 64))
(declare-fun temp132514_21 () (_ BitVec 64))
(declare-fun temp132514_22 () (_ BitVec 64))
(declare-fun temp132514_23 () (_ BitVec 64))
(declare-fun temp132514_24 () (_ BitVec 64))
(declare-fun temp132514_25 () (_ BitVec 64))
(declare-fun temp132514_26 () (_ BitVec 64))
(declare-fun temp132514_27 () (_ BitVec 64))
(declare-fun temp132514_28 () (_ BitVec 64))
(declare-fun temp132514_29 () (_ BitVec 64))
(declare-fun temp132514_30 () (_ BitVec 64))
(declare-fun temp132514_31 () (_ BitVec 64))
(declare-fun temp132514_32 () (_ BitVec 64))
(declare-fun var77832 () (_ BitVec 64))
(declare-fun temp132514_33 () (_ BitVec 64))
(declare-fun temp132514_34 () (_ BitVec 64))
(declare-fun var77833 () (_ BitVec 64))
(declare-fun var77834 () (_ BitVec 64))
(declare-fun temp132514_35 () (_ BitVec 64))
(declare-fun temp132514_36 () (_ BitVec 64))
(declare-fun var275510 () (_ BitVec 64))
(declare-fun temp132514_37 () (_ BitVec 64))
(declare-fun var275528 () (_ BitVec 64))
(declare-fun temp132514_38 () (_ BitVec 64))
(declare-fun temp132514_40 () (_ BitVec 64))
(declare-fun temp132514_39 () (_ BitVec 64))
(declare-fun temp132514_42 () (_ BitVec 64))
(declare-fun temp132514_41 () (_ BitVec 64))
(declare-fun temp132514_43 () (_ BitVec 64))
(declare-fun var406582 () (_ BitVec 64))
(declare-fun temp132514_44 () (_ BitVec 64))
(declare-fun var406600 () (_ BitVec 64))
(declare-fun temp132514_45 () (_ BitVec 64))
(declare-fun temp132514_46 () (_ BitVec 64))
(declare-fun var537654 () (_ BitVec 64))
(declare-fun temp132514_47 () (_ BitVec 64))
(declare-fun var537672 () (_ BitVec 64))
(declare-fun temp132514_48 () (_ BitVec 64))
(declare-fun temp132514_50 () (_ BitVec 64))
(declare-fun temp132514_49 () (_ BitVec 64))
(declare-fun temp132514_52 () (_ BitVec 64))
(declare-fun temp132514_51 () (_ BitVec 64))
(declare-fun temp132514_54 () (_ BitVec 64))
(declare-fun temp132514_53 () (_ BitVec 64))
(declare-fun temp132514_56 () (_ BitVec 64))
(declare-fun temp132514_55 () (_ BitVec 64))
(declare-fun temp132514_58 () (_ BitVec 64))
(declare-fun temp132514_57 () (_ BitVec 64))
(declare-fun temp132514_59 () (_ BitVec 64))
(declare-fun var730187 () (_ BitVec 64))
(declare-fun var730166 () (_ BitVec 64))
(declare-fun var664598 () (_ BitVec 64))
(declare-fun temp132514_60 () (_ BitVec 64))
(declare-fun temp132514_62 () (_ BitVec 64))
(declare-fun temp132514_61 () (_ BitVec 64))
(declare-fun temp132514_64 () (_ BitVec 64))
(declare-fun temp132514_63 () (_ BitVec 64))
(declare-fun temp132514_66 () (_ BitVec 64))
(declare-fun temp132514_65 () (_ BitVec 64))
(declare-fun temp132514_67 () (_ BitVec 64))
(declare-fun var926770 () (_ BitVec 64))
(declare-fun temp132514_68 () (_ BitVec 64))
(declare-fun var926771 () (_ BitVec 64))
(declare-fun var926772 () (_ BitVec 64))
(declare-fun var926768 () (_ BitVec 64))
(declare-fun var599004 () (_ BitVec 64))
(declare-fun temp132514_69 () (_ BitVec 64))
(declare-fun var992306 () (_ BitVec 64))
(declare-fun temp132514_70 () (_ BitVec 64))
(declare-fun var992307 () (_ BitVec 64))
(declare-fun var992308 () (_ BitVec 64))
(declare-fun var992304 () (_ BitVec 64))
(declare-fun var599011 () (_ BitVec 64))
(declare-fun temp132514_71 () (_ BitVec 64))
(declare-fun var1057842 () (_ BitVec 64))
(declare-fun temp132514_72 () (_ BitVec 64))
(declare-fun var1057843 () (_ BitVec 64))
(declare-fun var1057844 () (_ BitVec 64))
(declare-fun var1057840 () (_ BitVec 64))
(declare-fun var599016 () (_ BitVec 64))
(declare-fun var78095 () (_ BitVec 64))
(declare-fun temp132514_73 () (_ BitVec 64))
(declare-fun temp132514_74 () (_ BitVec 64))
(declare-fun var78184 () (_ BitVec 64))
(assert (or (= ARGNAME_data_format_NAMEEND_STRFMT #x0000000000000000)
    (= ARGNAME_data_format_NAMEEND_STRFMT #x0000000000000001)
    (= ARGNAME_data_format_NAMEEND_STRFMT #x0000000000000002)
    (= ARGNAME_data_format_NAMEEND_STRFMT #x0000000000000003)
    (= ARGNAME_data_format_NAMEEND_STRFMT #x0000000000000004)
    (= ARGNAME_data_format_NAMEEND_STRFMT #x0000000000000005)))
(assert (= temp132514_1 #x0000000000000005))
(assert (= var77740
   (ite (= ARGNAME_input_1_NAMEEND_DIM temp132514_1)
        #x0000000000000001
        #x0000000000000000)))
(assert (= temp132514_2 #x0000000000000001))
(assert (= var77740 temp132514_2))
(assert (= temp132514_3 #x0000000000000005))
(assert (= var77770
   (ite (= ARGNAME_input_2_NAMEEND_DIM temp132514_3)
        #x0000000000000001
        #x0000000000000000)))
(assert (= temp132514_4 #x0000000000000001))
(assert (= var77770 temp132514_4))
(assert (= temp132514_5 #x0000000000000000))
(assert (= temp132514_6 (select ARGNAME_input_1_NAMEEND_DIMSIZE temp132514_5)))
(assert (= temp132514_7 #x0000000000000001))
(assert (= temp132514_8 (select ARGNAME_input_1_NAMEEND_DIMSIZE temp132514_7)))
(assert (= temp132514_9 #x0000000000000002))
(assert (= temp132514_10 (select ARGNAME_input_1_NAMEEND_DIMSIZE temp132514_9)))
(assert (= temp132514_11 #x0000000000000003))
(assert (= temp132514_12 (select ARGNAME_input_1_NAMEEND_DIMSIZE temp132514_11)))
(assert (= temp132514_13 #x0000000000000004))
(assert (= temp132514_14 (select ARGNAME_input_1_NAMEEND_DIMSIZE temp132514_13)))
(assert (= temp132514_15 #x0000000000000005))
(assert (= temp132514_16 (select ARGNAME_input_1_NAMEEND_DIMSIZE temp132514_15)))
(assert (= temp132514_17 #x0000000000000003))
(assert (= temp132514_18 (select ARGNAME_input_1_NAMEEND_DIMSIZE temp132514_17)))
(assert (= var77799 temp132514_18))
(assert (= temp132514_19 #x0000000000000000))
(assert (= temp132514_20 (select ARGNAME_input_2_NAMEEND_DIMSIZE temp132514_19)))
(assert (= temp132514_21 #x0000000000000001))
(assert (= temp132514_22 (select ARGNAME_input_2_NAMEEND_DIMSIZE temp132514_21)))
(assert (= temp132514_23 #x0000000000000002))
(assert (= temp132514_24 (select ARGNAME_input_2_NAMEEND_DIMSIZE temp132514_23)))
(assert (= temp132514_25 #x0000000000000003))
(assert (= temp132514_26 (select ARGNAME_input_2_NAMEEND_DIMSIZE temp132514_25)))
(assert (= temp132514_27 #x0000000000000004))
(assert (= temp132514_28 (select ARGNAME_input_2_NAMEEND_DIMSIZE temp132514_27)))
(assert (= temp132514_29 #x0000000000000005))
(assert (= temp132514_30 (select ARGNAME_input_2_NAMEEND_DIMSIZE temp132514_29)))
(assert (= temp132514_31 #x0000000000000004))
(assert (= temp132514_32 (select ARGNAME_input_2_NAMEEND_DIMSIZE temp132514_31)))
(assert (= var77832 temp132514_32))
(assert (= temp132514_33 #x0000000000000004))
(assert (= temp132514_34 (select ARGNAME_input_1_NAMEEND_DIMSIZE temp132514_33)))
(assert (= var77833 temp132514_34))
(assert (= var77834 (ite (= var77832 var77833) #x0000000000000001 #x0000000000000000)))
(assert (= temp132514_35 #x0000000000000001))
(assert (= var77834 temp132514_35))
(assert (= temp132514_36 #x0000000000000001))
(assert (= var275510 temp132514_36))
(assert (= temp132514_37 #x0000000000000001))
(assert (= var275528
   (ite (bvslt var275510 temp132514_37) #x0000000000000001 #x0000000000000000)))
(assert (= temp132514_38 #x0000000000000000))
(assert (= var275528 temp132514_38))
(assert (= temp132514_40 #x0000000000000000))
(assert (= temp132514_39 temp132514_40))
(assert (= temp132514_42 #x0000000000000000))
(assert (= temp132514_41 temp132514_42))
(assert (= temp132514_43 #x0000000000000001))
(assert (= var406582 temp132514_43))
(assert (= temp132514_44 #x0000000000000001))
(assert (= var406600
   (ite (bvslt var406582 temp132514_44) #x0000000000000001 #x0000000000000000)))
(assert (= temp132514_45 #x0000000000000000))
(assert (= var406600 temp132514_45))
(assert (= temp132514_46 #x0000000000000001))
(assert (= var537654 temp132514_46))
(assert (= temp132514_47 #x0000000000000001))
(assert (= var537672
   (ite (bvslt var537654 temp132514_47) #x0000000000000001 #x0000000000000000)))
(assert (= temp132514_48 #x0000000000000000))
(assert (= var537672 temp132514_48))
(assert (= temp132514_50 #x0000000000000000))
(assert (= temp132514_49 temp132514_50))
(assert (= temp132514_52 #x0000000000000000))
(assert (= temp132514_51 temp132514_52))
(assert (= temp132514_54 #x00000000000000ff))
(assert (= temp132514_53 temp132514_54))
(assert (= temp132514_56 #x00000000000000ff))
(assert (= temp132514_55 temp132514_56))
(assert (= temp132514_58 #x00000000000000ff))
(assert (= temp132514_57 temp132514_58))
(assert (= temp132514_59 #x0000000000000000))
(assert (= var730187 temp132514_59))
(assert (= var730166 var730187))
(assert (= var664598 var730166))
(assert (= temp132514_60 #x0000000000000000))
(assert (= var664598 temp132514_60))
(assert (= temp132514_62 #x0000000000000000))
(assert (= temp132514_61 temp132514_62))
(assert (= temp132514_64 #x0000000000000000))
(assert (= temp132514_63 temp132514_64))
(assert (= temp132514_66 #x0000000000000000))
(assert (= temp132514_65 temp132514_66))
(assert (= temp132514_67 #x0000000000008000))
(assert (= var926770 temp132514_67))
(assert (= temp132514_68 #x0000000000000001))
(assert (= var926771
   (ite (bvslt temp132514_65 temp132514_68)
        #x0000000000000001
        #x0000000000000000)))
(assert (= var926772 (ite (= var926771 #x0000000000000001) var926770 temp132514_65)))
(assert (= var926768 var926772))
(assert (= var599004 var926768))
(assert (= temp132514_69 #x0000000000040000))
(assert (= var992306 temp132514_69))
(assert (= temp132514_70 #x0000000000000001))
(assert (= var992307
   (ite (bvslt temp132514_63 temp132514_70)
        #x0000000000000001
        #x0000000000000000)))
(assert (= var992308 (ite (= var992307 #x0000000000000001) var992306 temp132514_63)))
(assert (= var992304 var992308))
(assert (= var599011 var992304))
(assert (= temp132514_71 #x0000000000200000))
(assert (= var1057842 temp132514_71))
(assert (= temp132514_72 #x0000000000000001))
(assert (= var1057843
   (ite (bvslt temp132514_61 temp132514_72)
        #x0000000000000001
        #x0000000000000000)))
(assert (= var1057844 (ite (= var1057843 #x0000000000000001) var1057842 temp132514_61)))
(assert (= var1057840 var1057844))
(assert (= var599016 var1057840))
(assert (= var78095 var599016))
(assert (= temp132514_73 #x0000000000000003))
(assert (= temp132514_74 #x0000000000000001))
(assert (= var78184 temp132514_74))
(model-add temp132514_1 () (_ BitVec 64) #x0000000000000005)
(model-add temp132514_2 () (_ BitVec 64) #x0000000000000001)
(model-add var77740 () (_ BitVec 64) #x0000000000000001)
(model-del k!0)
(model-add ARGNAME_input_1_NAMEEND_DIM
           ()
           (_ BitVec 64)
           (ite k!0 #x0000000000000005 (bvnot #x0000000000000005)))

